! Created Sun Oct  4 15:48:59 2026
# hz S ma R 50
! Port[1] Term1
! 1 Port Network Data from SP1.SP block
! freq  magS11  angS11  
!     
1e+09       0.599442812        -19.2261041
1.09090909e+09        0.59939283        -20.9728611
1.18181818e+09        0.59934298        -22.7197753
1.27272727e+09       0.599293272         -24.466871
1.36363636e+09       0.599243717        -26.2141687
1.45454545e+09       0.599194321        -27.9616853
1.54545455e+09       0.599145092        -29.7094349
1.63636364e+09       0.599096033        -31.4574292
1.72727273e+09       0.599047147        -33.2056779
1.81818182e+09       0.598998434        -34.9541892
1.90909091e+09       0.598949892        -36.7029698
2e+09       0.598901517        -38.4520251
2.09090909e+09       0.598853302        -40.2013597
2.18181818e+09       0.598805237        -41.9509774
2.27272727e+09        0.59875731        -43.7008814
2.36363636e+09       0.598709508        -45.4510741
2.45454545e+09       0.598661813        -47.2015579
2.54545455e+09       0.598614204        -48.9523347
2.63636364e+09       0.598566662        -50.7034062
2.72727273e+09        0.59851916         -52.454774
2.81818182e+09       0.598471673        -54.2064397
2.90909091e+09        0.59842417        -55.9584051
3e+09       0.598376621        -57.7106719
3.09090909e+09       0.598328993         -59.463242
3.18181818e+09       0.598281249        -61.2161177
3.27272727e+09       0.598233352        -62.9693014
3.36363636e+09       0.598185263        -64.7227959
3.45454545e+09       0.598136942        -66.4766044
3.54545455e+09       0.598088346        -68.2307304
3.63636364e+09       0.598039431         -69.985178
3.72727273e+09       0.597990151        -71.7399516
3.81818182e+09       0.597940462        -73.4950562
3.90909091e+09       0.597890316        -75.2504972
4e+09       0.597839665        -77.0062808
4.09090909e+09        0.59778846        -78.7624135
4.18181818e+09       0.597736653        -80.5189024
4.27272727e+09       0.597684194        -82.2757554
4.36363636e+09       0.597631035        -84.0329808
4.45454545e+09       0.597577125        -85.7905876
4.54545455e+09       0.597522416        -87.5485853
4.63636364e+09        0.59746686        -89.3069841
4.72727273e+09       0.597410408        -91.0657949
4.81818182e+09       0.597353013         -92.825029
4.90909091e+09       0.597294629        -94.5846985
5e+09       0.597235211         -96.344816
5.09090909e+09       0.597174715        -98.1053948
5.18181818e+09       0.597113099        -99.8664486
5.27272727e+09       0.597050323        -101.627992
5.36363636e+09       0.596986348        -103.390039
5.45454545e+09       0.596921137        -105.152607
5.54545455e+09       0.596854656         -106.91571
5.63636364e+09       0.596786873        -108.679365
5.72727273e+09        0.59671776         -110.44359
5.81818182e+09       0.596647288        -112.208401
5.90909091e+09       0.596575435        -113.973817
6e+09        0.59650218        -115.739855
6.09090909e+09       0.596427505        -117.506535
6.18181818e+09       0.596351396        -119.273874
6.27272727e+09       0.596273843        -121.041894
6.36363636e+09       0.596194838        -122.810611
6.45454545e+09       0.596114379        -124.580048
6.54545455e+09       0.596032466        -126.350223
6.63636364e+09       0.595949103        -128.121156
6.72727273e+09       0.595864299        -129.892869
6.81818182e+09       0.595778068        -131.665379
6.90909091e+09       0.595690426        -133.438709
7e+09       0.595601395        -135.212879
7.09090909e+09       0.595511001        -136.987907
7.18181818e+09       0.595419275        -138.763815
7.27272727e+09       0.595326252        -140.540622
7.36363636e+09       0.595231971        -142.318348
7.45454545e+09       0.595136477        -144.097013
7.54545455e+09        0.59503982        -145.876635
7.63636364e+09       0.594942052        -147.657232
7.72727273e+09       0.594843233        -149.438825
7.81818182e+09       0.594743426        -151.221429
7.90909091e+09       0.594642699        -153.005062
8e+09       0.594541125        -154.789742
8.09090909e+09        0.59443878        -156.575484
8.18181818e+09       0.594335747        -158.362304
8.27272727e+09       0.594232112        -160.150216
8.36363636e+09       0.594127966        -161.939235
8.45454545e+09       0.594023403        -163.729373
8.54545455e+09       0.593918524        -165.520642
8.63636364e+09       0.593813432        -167.313054
8.72727273e+09       0.593708235         -169.10662
8.81818182e+09       0.593603043        -170.901348
8.90909091e+09       0.593497972        -172.697246
9e+09       0.593393141        -174.494322
9.09090909e+09       0.593288671        -176.292582
9.18181818e+09       0.593184689         -178.09203
9.27272727e+09       0.593081321        -179.892669
9.36363636e+09         0.5929787         178.305498
9.45454545e+09       0.592876959         176.502471
9.54545455e+09       0.592776233         174.698251
9.63636364e+09        0.59267666         172.892838
9.72727273e+09       0.592578381         171.086238
9.81818182e+09       0.592481536         169.278454
9.90909091e+09       0.592386267         167.469494
1e+10       0.592292719         165.659366
