! Created Sun Oct  4 15:50:53 2026
# hz S ma R 50
! Port[1] Term1
! 1 Port Network Data from SP1.SP block
! freq  magS11  angS11  
!     
1e+09       0.466921468        -57.8892233
1.09090909e+09       0.439160696        -63.6803644
1.18181818e+09       0.408205548        -69.6007698
1.27272727e+09       0.373973854        -75.6539836
1.36363636e+09       0.336440529        -81.8399999
1.45454545e+09       0.295657178        -88.1542161
1.54545455e+09       0.251770981         -94.585956
1.63636364e+09        0.20504008        -101.115771
1.72727273e+09       0.155842163        -107.708374
1.81818182e+09       0.104673237        -114.284902
1.90909091e+09      0.0521357598         -120.52433
2e+09     0.00153484381         7.90196919
2.09090909e+09       0.054334901         43.4940418
2.18181818e+09       0.106798789         37.2187732
2.27272727e+09       0.157847152         30.6351229
2.36363636e+09       0.206881336         24.0394104
2.45454545e+09       0.253409852         17.5074211
2.54545455e+09       0.297060034         11.0736526
2.63636364e+09       0.337578913          4.7572594
2.72727273e+09       0.374824312        -1.43121873
2.81818182e+09       0.408749234        -7.48724906
2.90909091e+09        0.43938283        -13.4108575
3e+09       0.466810731        -19.2055923
3.09090909e+09       0.491156701        -24.8776908
3.18181818e+09       0.512566772        -30.4353917
3.27272727e+09       0.531196302        -35.8883722
3.36363636e+09       0.547199937         -41.247301
3.45454545e+09       0.560724168        -46.5234945
3.54545455e+09       0.571902038        -51.7286621
3.63636364e+09       0.580849542        -56.8747278
3.72727273e+09       0.587663278         -61.973711
3.81818182e+09          0.592419         -67.037656
3.90909091e+09       0.595170759        -72.0785953
4e+09       0.595950454        -77.1085385
4.09090909e+09       0.594767606        -82.1394762
4.18181818e+09       0.591609308        -87.1833896
4.27272727e+09        0.58644031        -92.2522598
4.36363636e+09        0.57920327        -97.3580659
4.45454545e+09       0.569819281        -102.512764
4.54545455e+09       0.558188815        -107.728237
4.63636364e+09       0.544193324        -113.016203
4.72727273e+09       0.527697791        -118.388066
4.81818182e+09       0.508554627        -123.854695
4.90909091e+09       0.486609339        -129.426111
5e+09       0.461708445        -135.111056
5.09090909e+09       0.433710066        -140.916411
5.18181818e+09       0.402497459        -146.846434
5.27272727e+09       0.367995455        -152.901716
5.36363636e+09       0.330189218        -159.077722
5.45454545e+09       0.289144056        -165.362484
5.54545455e+09       0.245024167        -171.732318
5.63636364e+09       0.198107515        -178.141894
5.72727273e+09       0.148793945         175.505544
5.81818182e+09      0.0976059831         169.483833
5.90909091e+09      0.0452069127         165.254145
6e+09      0.0089021484        -52.0841963
6.09090909e+09      0.0610856555        -36.9782516
6.18181818e+09       0.113113815        -42.1551384
6.27272727e+09       0.163661703        -48.3308364
6.36363636e+09       0.212123824        -54.7168843
6.45454545e+09       0.258022964        -61.1223276
6.54545455e+09       0.301005054        -67.4722215
6.63636364e+09       0.340835671        -73.7299425
6.72727273e+09       0.377389037        -79.8764299
6.81818182e+09       0.410631321        -85.9026587
6.90909091e+09       0.440601218        -91.8061543
7e+09       0.467390363        -97.5890112
7.09090909e+09       0.491125365        -103.256587
7.18181818e+09       0.511952451        -108.816564
7.27272727e+09       0.530025076        -114.278253
7.36363636e+09       0.545494389        -119.652067
7.45454545e+09       0.558502214        -124.949139
7.54545455e+09       0.569176107        -130.181041
7.63636364e+09       0.577626008        -135.359589
7.72727273e+09       0.583942084         -140.49672
7.81818182e+09       0.588193406         -145.60441
7.90909091e+09       0.590427192        -150.694633
8e+09       0.590668419        -155.779343
8.09090909e+09       0.588919678        -160.870471
8.18181818e+09       0.585161196        -165.979924
8.27272727e+09       0.579351038        -171.119581
8.36363636e+09       0.571425529        -176.301277
8.45454545e+09        0.56130002         178.463241
8.54545455e+09       0.548870175          173.16239
8.63636364e+09       0.534014037         167.784878
8.72727273e+09       0.516595199         162.319895
8.81818182e+09       0.496467469         156.757393
8.90909091e+09        0.47348147         151.088475
9e+09       0.447493609         145.305925
9.09090909e+09       0.418377752         139.404928
9.18181818e+09       0.386039736          133.38406
9.27272727e+09       0.350434437         127.246691
9.36363636e+09       0.311584558          121.00317
9.45454545e+09       0.269599544         114.674678
9.54545455e+09       0.224692358         108.301372
9.63636364e+09       0.177191495         101.963677
9.72727273e+09       0.127546922         95.8546365
9.81818182e+09      0.0763392678         90.6491899
9.90909091e+09      0.0245066101         92.5984898
1e+10      0.0291907319        -118.210751
