! Created Sun Oct  4 16:03:18 2026
# hz S ma R 50
! Port[1] Term1
! 1 Port Network Data from SP1.SP block
! freq  magS11  angS11  
!     
1e+09        0.46754645         19.3372488
1.09090909e+09       0.532100098         6.17190821
1.18181818e+09       0.572985787         -6.1439736
1.27272727e+09       0.593696492        -17.9202027
1.36363636e+09       0.596273673        -29.4780984
1.45454545e+09       0.581016338        -41.1377514
1.54545455e+09       0.546460245        -53.2172832
1.63636364e+09       0.489562984        -66.0242898
1.72727273e+09       0.406435566        -79.8152023
1.81818182e+09       0.294309815        -94.6809374
1.90909091e+09       0.155127245        -110.177292
2e+09     0.00413964292        -22.8782233
2.09090909e+09       0.157162683         33.1362921
2.18181818e+09       0.295819594          17.637257
2.27272727e+09        0.40723335         2.78491569
2.36363636e+09       0.489582322        -10.9902394
2.45454545e+09       0.545694519        -23.7818314
2.54545455e+09       0.579473039        -35.8463342
2.63636364e+09       0.593951792        -47.4898002
2.72727273e+09       0.590580039        -59.0271632
2.81818182e+09       0.569049199        -70.7725757
2.90909091e+09       0.527329164        -83.0357175
3e+09       0.461986822        -96.1015356
3.09090909e+09       0.369263362        -110.159909
3.18181818e+09       0.247616457        -125.098074
3.27272727e+09       0.101656305        -139.251362
3.36363636e+09      0.0565601275         12.8296631
3.45454545e+09       0.207210763         1.30263193
3.54545455e+09        0.33648321        -13.7478046
3.63636364e+09       0.437271928        -28.0921803
3.72727273e+09        0.50980082        -41.4294224
3.81818182e+09       0.557540041        -53.8939604
3.90909091e+09       0.584179467         -65.753101
4e+09       0.592201979        -77.3110894
4.09090909e+09       0.582417715        -88.8780545
4.18181818e+09       0.553879646        -100.762359
4.27272727e+09       0.503996825        -113.260961
4.36363636e+09       0.429065591        -126.620422
4.45454545e+09       0.325823549        -140.915722
4.54545455e+09       0.194617353        -155.614837
4.63636364e+09      0.0437952743        -162.250178
4.72727273e+09       0.114256253        -17.0067582
4.81818182e+09       0.257612152        -30.6286941
4.90909091e+09       0.376057792        -45.2826834
5e+09       0.465636352        -59.1492328
5.09090909e+09        0.52818518        -72.0822226
5.18181818e+09       0.567454637        -84.2603311
5.27272727e+09       0.586728758        -95.9606995
5.36363636e+09       0.587846504        -107.485688
5.45454545e+09        0.57092398        -119.140738
5.54545455e+09        0.53434669        -131.226209
5.63636364e+09       0.475007452        -144.016712
5.72727273e+09       0.389170378        -157.690896
5.81818182e+09       0.274646124        -172.110889
5.90909091e+09       0.134543986         174.361162
6e+09      0.0245166665        -58.2855608
6.09090909e+09       0.174048939        -48.6031688
6.18181818e+09        0.30761691        -62.7893749
6.27272727e+09       0.413931655        -77.0407595
6.36363636e+09       0.491834148        -90.4562858
6.45454545e+09       0.544260117        -103.027391
6.54545455e+09        0.57489381        -114.971366
6.63636364e+09       0.586442366        -126.572519
6.72727273e+09       0.580016022        -138.130716
6.81818182e+09       0.554987574        -149.945639
6.90909091e+09       0.509073442        -162.304012
7e+09       0.438784186        -175.439397
7.09090909e+09       0.340783097         170.593684
7.18181818e+09       0.214787361         156.380265
7.27272727e+09      0.0679816141         148.441882
7.36363636e+09      0.0901732778        -70.4117819
7.45454545e+09       0.234480006        -81.0260044
7.54545455e+09       0.355995127        -95.2787841
7.63636364e+09       0.449213688        -109.112148
7.72727273e+09       0.515190592        -122.111178
7.81818182e+09       0.557413678        -134.374555
7.90909091e+09       0.579196078        -146.148521
8e+09       0.582528106        -157.721238
8.09090909e+09       0.567721841        -169.388817
8.18181818e+09       0.533377958         178.558236
8.27272727e+09        0.47660435         165.859075
8.36363636e+09       0.393818426         152.357875
8.45454545e+09       0.282779984         138.245006
8.54545455e+09        0.14621503         125.336149
8.63636364e+09       0.018531764        -144.544654
8.72727273e+09       0.159871879        -100.915084
8.81818182e+09       0.293793995        -114.153779
8.90909091e+09       0.401508707        -128.209914
9e+09       0.481109036        -141.614185
9.09090909e+09       0.535128437        -154.236974
9.18181818e+09       0.567103365        -166.251938
9.27272727e+09       0.579734206        -177.923699
9.36363636e+09       0.574189192         170.459303
9.45454545e+09       0.549933014         158.607568
9.54545455e+09       0.504805632         146.248319
9.63636364e+09       0.435479203         133.172787
9.72727273e+09       0.338803845         119.381802
9.81818182e+09       0.214654044         105.644527
9.90909091e+09      0.0706125159          99.947361
1e+10      0.0876758663        -125.731261
